solution status: optimal solution found
objective value:                      164128.15089775
d11(1,1)                                            1 	(obj:0)
d11(3,7)                                            1 	(obj:0)
d11(3,8)                                            1 	(obj:0)
d11(3,9)                                            1 	(obj:0)
d11(3,11)                                           1 	(obj:0)
d11(3,13)                                           1 	(obj:0)
d11(3,14)                                           1 	(obj:0)
d11(4,27)                                           1 	(obj:0)
d11(5,31)                                           1 	(obj:0)
d11(5,32)                                           1 	(obj:0)
d11(5,33)                                           1 	(obj:0)
d11(5,35)                                           1 	(obj:0)
d11(5,36)                                           1 	(obj:0)
d11(5,37)                                           1 	(obj:0)
d11(5,38)                                           1 	(obj:0)
d11(5,39)                                           1 	(obj:0)
d11(5,41)                                           1 	(obj:0)
d11(5,43)                                           1 	(obj:0)
d11(5,44)                                           1 	(obj:0)
d11(5,45)                                           1 	(obj:0)
d11(5,46)                                           1 	(obj:0)
d11(5,47)                                           1 	(obj:0)
d11(5,49)                                           1 	(obj:0)
d11(5,50)                                           1 	(obj:0)
d11(5,51)                                           1 	(obj:0)
d11(5,53)                                           1 	(obj:0)
d11(5,54)                                           1 	(obj:0)
d11(5,55)                                           1 	(obj:0)
d11(5,57)                                           1 	(obj:0)
d11(5,59)                                           1 	(obj:0)
d11(5,61)                                           1 	(obj:0)
d12(1,2)                                            1 	(obj:0)
d12(2,4)                                            1 	(obj:0)
d12(2,6)                                            1 	(obj:0)
d12(4,16)                                           1 	(obj:0)
d12(4,18)                                           1 	(obj:0)
d12(4,20)                                           1 	(obj:0)
d12(4,22)                                           1 	(obj:0)
d12(4,24)                                           1 	(obj:0)
d12(4,26)                                           1 	(obj:0)
d12(4,28)                                           1 	(obj:0)
d12(4,30)                                           1 	(obj:0)
d21(4,15)                                           1 	(obj:0)
d21(5,31)                                           1 	(obj:0)
d21(5,32)                                           1 	(obj:0)
d21(5,33)                                           1 	(obj:0)
d21(5,34)                                           1 	(obj:0)
d21(5,35)                                           1 	(obj:0)
d21(5,37)                                           1 	(obj:0)
d21(5,39)                                           1 	(obj:0)
d21(5,40)                                           1 	(obj:0)
d21(5,41)                                           1 	(obj:0)
d21(5,43)                                           1 	(obj:0)
d21(5,47)                                           1 	(obj:0)
d21(5,48)                                           1 	(obj:0)
d21(5,49)                                           1 	(obj:0)
d21(5,51)                                           1 	(obj:0)
d21(5,55)                                           1 	(obj:0)
STE(1,1)                             13040.9996999924 	(obj:0)
STE(0,0)                                        14175 	(obj:0)
STE(1,2)                             14357.2138189003 	(obj:0)
STE(2,3)                             11906.9996999924 	(obj:0)
STE(2,4)                             13223.2137858689 	(obj:0)
STE(2,5)                             13223.2138189003 	(obj:0)
STE(2,6)                             14539.4279047768 	(obj:0)
STE(3,7)                             9114.74980110358 	(obj:0)
STE(3,8)                             10772.9996999932 	(obj:0)
STE(3,9)                             10430.9638869801 	(obj:0)
STE(3,10)                            12089.2137858689 	(obj:0)
STE(3,11)                            10430.9639200115 	(obj:0)
STE(3,12)                            12089.2138189003 	(obj:0)
STE(3,13)                             11747.178005888 	(obj:0)
STE(3,14)                            13405.4279047768 	(obj:0)
STE(4,15)                            7980.74980110358 	(obj:0)
STE(4,16)                            9296.96388698009 	(obj:0)
STE(4,17)                            9638.99969999776 	(obj:0)
STE(4,18)                            10955.2137858697 	(obj:0)
STE(4,19)                            9296.96388698009 	(obj:0)
STE(4,20)                            10613.1779728566 	(obj:0)
STE(4,21)                            10955.2137858689 	(obj:0)
STE(4,22)                            12271.4278717455 	(obj:0)
STE(4,23)                            9296.96392001149 	(obj:0)
STE(4,24)                             10613.178005888 	(obj:0)
STE(4,25)                            10955.2138189003 	(obj:0)
STE(4,26)                            12271.4279047768 	(obj:0)
STE(4,27)                             10613.178005888 	(obj:0)
STE(4,28)                            11929.3920917645 	(obj:0)
STE(4,29)                            12271.4279047768 	(obj:0)
STE(4,30)                            13587.6419906533 	(obj:0)
STE(5,31)                            5188.49990221467 	(obj:0)
STE(5,32)                            6846.74980110349 	(obj:0)
STE(5,33)                            6504.71398809118 	(obj:0)
STE(5,34)                            8162.96388698009 	(obj:0)
STE(5,35)                            6846.74980110885 	(obj:0)
STE(5,36)                            8504.99969999776 	(obj:0)
STE(5,37)                            8162.96388698075 	(obj:0)
STE(5,38)                            9821.21378586956 	(obj:0)
STE(5,39)                            6504.71398809119 	(obj:0)
STE(5,40)                            8162.96388698009 	(obj:0)
STE(5,41)                            7820.92807396769 	(obj:0)
STE(5,42)                             9479.1779728566 	(obj:0)
STE(5,43)                            8162.96388698003 	(obj:0)
STE(5,44)                            9821.21378586894 	(obj:0)
STE(5,45)                            9479.17797285654 	(obj:0)
STE(5,46)                            11137.4278717455 	(obj:0)
STE(5,47)                            6504.71402112258 	(obj:0)
STE(5,48)                            8162.96392001149 	(obj:0)
STE(5,49)                            7820.92810699909 	(obj:0)
STE(5,50)                            9479.17800588791 	(obj:0)
STE(5,51)                            8162.96392001143 	(obj:0)
STE(5,52)                            9821.21381890034 	(obj:0)
STE(5,53)                            9479.17800588794 	(obj:0)
STE(5,54)                            11137.4279047768 	(obj:0)
STE(5,55)                            7820.92810699909 	(obj:0)
STE(5,56)                              9479.178005888 	(obj:0)
STE(5,57)                             9137.1421928756 	(obj:0)
STE(5,58)                            10795.3920917645 	(obj:0)
STE(5,59)                            9479.17800588791 	(obj:0)
STE(5,60)                            11137.4279047768 	(obj:0)
STE(5,61)                            10795.3920917644 	(obj:0)
STE(5,62)                            12453.6419906533 	(obj:0)
y1(5,39)                             1492.42490900002 	(obj:0)
y1(5,41)                             1492.42490900002 	(obj:0)
y1(5,43)                             1492.42490900002 	(obj:0)
y1(5,45)                             1492.42490900002 	(obj:0)
y1(5,47)                             1492.42490900002 	(obj:0)
y1(5,49)                             1492.42490900002 	(obj:0)
y1(5,51)                             1492.42490900002 	(obj:0)
y1(5,53)                             1492.42490900002 	(obj:0)
y1(5,55)                             1492.42490900002 	(obj:0)
y1(5,57)                             1492.42490900002 	(obj:0)
y1(5,59)                             1492.42490900002 	(obj:0)
y1(5,61)                             1492.42490900002 	(obj:0)
WB(1)                                543.501489305615 	(obj:0)
AVE(1)                                   3216.9117036 	(obj:0)
WB(2)                                692.744255724489 	(obj:0)
AVE(2)                                   3366.1541945 	(obj:0)
AVE(3)                                   3515.3966854 	(obj:0)
WB(4)                                841.984126682749 	(obj:0)
AVE(4)                               3515.39406545826 	(obj:0)
AVE(5)                               3167.15385943327 	(obj:0)
WG(1)                                2673.41021429438 	(obj:10)
WG(2)                                2673.40993877551 	(obj:10)
WG(3)                                    3515.3966854 	(obj:10)
WG(4)                                2673.40993877551 	(obj:10)
WG(5)                                3167.15385943327 	(obj:10)
BG(1)                            -1.67733096347891e-009 	(obj:10)
BG(3)                                680.895813579591 	(obj:10)
BG(5)                                1029.13863954632 	(obj:10)
y1(1,1)                          0.000270006814971566 	(obj:0)
y1(3,7)                              1492.42490899996 	(obj:0)
y1(3,9)                              1492.42490899996 	(obj:0)
y1(3,11)                             1492.42490899996 	(obj:0)
y1(3,13)                             1492.42490899996 	(obj:0)
y1(4,17)                         -4.15253452956677e-009 	(obj:0)
y1(5,31)                             1492.42490900002 	(obj:0)
y1(5,33)                             1492.42490900002 	(obj:0)
y1(5,35)                             1492.42490900002 	(obj:0)
y1(5,37)                             1492.42490900002 	(obj:0)
y2(1,2)                              1385.48823042141 	(obj:0)
y2(2,4)                              1385.48851144896 	(obj:0)
y2(2,6)                              1385.48851144896 	(obj:0)
y2(4,16)                             1385.48851144896 	(obj:0)
y2(4,18)                             1385.48851144895 	(obj:0)
y2(4,20)                             1385.48851144895 	(obj:0)
y2(4,22)                             1385.48851144896 	(obj:0)
y2(4,24)                             1385.48851144896 	(obj:0)
y2(4,26)                             1385.48851144896 	(obj:0)
y2(4,28)                             1385.48851144895 	(obj:0)
y2(4,30)                             1385.48851144895 	(obj:0)
